01111100000000000011101111100110000000100000000011111100100010000100010001001000000000110001010101111011100101100000001100010101101110111101011011011101010111101011000000110101000000001001110010011001100000010000000001110001101011010110111101010101110101111110010100000100110110010000010110101110111011101010010110100110111111011100100110001111110011101001100111101111000100011010011000010111100000100011001100100001111100010010101101111010110111101111001010000011001000000011011001110001010000101111101000000101